\ Model pbTransp_3_3_grb.lp
\ LP format - for model browsing. Use MPS format to capture full model detail.
Minimize
  __pwl(x(1,1)) + __pwl(x(1,2)) + __pwl(x(1,3)) + __pwl(x(2,1))
   + __pwl(x(2,2)) + __pwl(x(2,3)) + __pwl(x(3,1)) + __pwl(x(3,2))
   + __pwl(x(3,3))
Subject To
 R0: x(1,1) + x(1,2) + x(1,3) <= 699
 R1: x(2,1) + x(2,2) + x(2,3) <= 105
 R2: x(3,1) + x(3,2) + x(3,3) <= 196
 R3: x(1,1) + x(2,1) + x(3,1) >= 35
 R4: x(1,2) + x(2,2) + x(3,2) >= 455
 R5: x(1,3) + x(2,3) + x(3,3) >= 510
Bounds
PWLObj
 x(1,1): (0, 0) (1e-6, 0) (1e-6, 7.018871914819846) (35, 20.6282128843759)
 x(1,2): (0, 0) (1e-6, 0) (1e-6, 3.059508270562472) (455, 8.991785103445924)
 x(1,3): (0, 0) (1e-6, 0) (1e-6, 12.41800415698891) (510, 36.49606894928046)
 x(2,1): (0, 0) (1e-6, 0) (1e-6, 9.538466961165414) (35, 28.03321238133134)
 x(2,2): (0, 0) (1e-6, 0) (1e-6, 13.49783060542275) (105, 39.66964016226139)
 x(2,3): (0, 0) (1e-6, 0) (1e-6, 17.99710747389701) (105, 52.89285354968178)
 x(3,1): (0, 0) (1e-6, 0) (1e-6, 7.198842989558788) (35, 21.15714141987271)
 x(3,2): (0, 0) (1e-6, 0) (1e-6, 15.8374545770294) (196, 46.54571112371998)
 x(3,3): (0, 0) (1e-6, 0) (1e-6, 5.579103316908085) (196, 16.39678460040135)
End
